
Gurobi 8.1.1 (linux64, Python) logging started Tue May 19 18:57:36 2020

Academic license - for non-commercial use only

Gurobi 8.1.1 (linux64, Python) logging started Thu May 21 13:53:18 2020

Academic license - for non-commercial use only

Gurobi 8.1.1 (linux64, Python) logging started Thu May 21 15:12:19 2020

Academic license - for non-commercial use only
